Instance Name : rc202
Date : 2022-07-18
Solution
Route 1 : 45 5 3 1 42 39 36 44 61 81 90 99 57 86 87 9 10 97 59 74 13 17 60 100 70
Route 2 : 91 92 95 85 63 33 28 26 27 29 31 30 62 67 71 72 41 38 40 43 35 37 54 96 93 94 80
Route 3 : 69 64 19 23 21 48 18 76 51 84 49 22 20 83 66 56 50 34 32 89 24 25 77 75 58 52
Route 4 : 65 82 12 14 47 16 15 11 88 98 53 73 78 79 7 8 6 46 4 2 55 68
